p edge 150 4470
e 1 2
e 1 4
e 1 9
e 1 11
e 1 12
e 1 13
e 1 19
e 1 20
e 1 23
e 1 25
e 1 27
e 1 28
e 1 29
e 1 30
e 1 33
e 1 34
e 1 35
e 1 37
e 1 40
e 1 42
e 1 51
e 1 53
e 1 61
e 1 62
e 1 63
e 1 65
e 1 67
e 1 68
e 1 69
e 1 72
e 1 80
e 1 82
e 1 83
e 1 84
e 1 85
e 1 88
e 1 90
e 1 93
e 1 94
e 1 101
e 1 102
e 1 106
e 1 109
e 1 113
e 1 114
e 1 116
e 1 119
e 1 120
e 1 121
e 1 122
e 1 125
e 1 128
e 1 133
e 1 135
e 1 137
e 1 142
e 1 147
e 1 148
e 1 150
e 2 4
e 2 6
e 2 11
e 2 12
e 2 13
e 2 19
e 2 20
e 2 24
e 2 30
e 2 31
e 2 32
e 2 40
e 2 41
e 2 43
e 2 48
e 2 50
e 2 51
e 2 53
e 2 56
e 2 58
e 2 60
e 2 61
e 2 64
e 2 69
e 2 71
e 2 73
e 2 75
e 2 81
e 2 83
e 2 85
e 2 88
e 2 90
e 2 91
e 2 93
e 2 100
e 2 102
e 2 104
e 2 108
e 2 111
e 2 113
e 2 114
e 2 117
e 2 118
e 2 129
e 2 132
e 2 138
e 2 140
e 2 144
e 2 145
e 2 146
e 2 147
e 3 5
e 3 14
e 3 16
e 3 17
e 3 19
e 3 21
e 3 23
e 3 25
e 3 28
e 3 30
e 3 31
e 3 32
e 3 34
e 3 36
e 3 37
e 3 40
e 3 42
e 3 43
e 3 44
e 3 45
e 3 51
e 3 58
e 3 60
e 3 62
e 3 65
e 3 69
e 3 70
e 3 71
e 3 72
e 3 76
e 3 77
e 3 90
e 3 91
e 3 99
e 3 105
e 3 108
e 3 112
e 3 113
e 3 115
e 3 116
e 3 117
e 3 118
e 3 119
e 3 120
e 3 123
e 3 131
e 3 132
e 3 136
e 3 139
e 3 140
e 3 147
e 3 148
e 4 6
e 4 8
e 4 11
e 4 14
e 4 15
e 4 17
e 4 19
e 4 21
e 4 23
e 4 25
e 4 29
e 4 31
e 4 32
e 4 36
e 4 40
e 4 42
e 4 47
e 4 50
e 4 53
e 4 54
e 4 56
e 4 58
e 4 61
e 4 62
e 4 69
e 4 73
e 4 75
e 4 76
e 4 77
e 4 79
e 4 80
e 4 84
e 4 85
e 4 91
e 4 92
e 4 94
e 4 96
e 4 99
e 4 101
e 4 107
e 4 110
e 4 112
e 4 113
e 4 115
e 4 116
e 4 118
e 4 119
e 4 120
e 4 123
e 4 124
e 4 127
e 4 128
e 4 132
e 4 135
e 4 138
e 4 141
e 4 143
e 4 144
e 4 145
e 5 6
e 5 12
e 5 20
e 5 26
e 5 29
e 5 31
e 5 40
e 5 42
e 5 45
e 5 46
e 5 48
e 5 49
e 5 50
e 5 51
e 5 54
e 5 56
e 5 57
e 5 62
e 5 65
e 5 68
e 5 72
e 5 74
e 5 76
e 5 79
e 5 85
e 5 86
e 5 88
e 5 92
e 5 96
e 5 99
e 5 100
e 5 104
e 5 106
e 5 109
e 5 110
e 5 111
e 5 114
e 5 118
e 5 124
e 5 125
e 5 135
e 5 136
e 5 139
e 5 147
e 6 13
e 6 17
e 6 24
e 6 26
e 6 27
e 6 29
e 6 39
e 6 40
e 6 43
e 6 46
e 6 47
e 6 53
e 6 54
e 6 56
e 6 57
e 6 62
e 6 65
e 6 66
e 6 68
e 6 71
e 6 72
e 6 73
e 6 74
e 6 76
e 6 77
e 6 78
e 6 80
e 6 81
e 6 82
e 6 85
e 6 86
e 6 88
e 6 89
e 6 90
e 6 93
e 6 95
e 6 96
e 6 97
e 6 99
e 6 100
e 6 104
e 6 106
e 6 107
e 6 110
e 6 111
e 6 112
e 6 120
e 6 122
e 6 125
e 6 128
e 6 130
e 6 133
e 6 134
e 6 137
e 6 141
e 6 143
e 6 144
e 6 146
e 6 150
e 7 8
e 7 11
e 7 16
e 7 19
e 7 20
e 7 25
e 7 31
e 7 32
e 7 35
e 7 39
e 7 42
e 7 43
e 7 46
e 7 49
e 7 51
e 7 53
e 7 54
e 7 60
e 7 62
e 7 63
e 7 64
e 7 65
e 7 66
e 7 71
e 7 78
e 7 79
e 7 83
e 7 84
e 7 89
e 7 90
e 7 91
e 7 92
e 7 99
e 7 100
e 7 104
e 7 105
e 7 106
e 7 109
e 7 111
e 7 112
e 7 113
e 7 115
e 7 120
e 7 123
e 7 125
e 7 128
e 7 131
e 7 132
e 7 133
e 7 134
e 7 136
e 7 140
e 7 141
e 7 144
e 7 146
e 7 148
e 7 149
e 8 9
e 8 15
e 8 17
e 8 18
e 8 20
e 8 22
e 8 23
e 8 25
e 8 26
e 8 27
e 8 30
e 8 31
e 8 41
e 8 42
e 8 44
e 8 45
e 8 51
e 8 52
e 8 54
e 8 57
e 8 58
e 8 59
e 8 60
e 8 61
e 8 62
e 8 67
e 8 73
e 8 75
e 8 76
e 8 78
e 8 79
e 8 82
e 8 83
e 8 86
e 8 87
e 8 88
e 8 90
e 8 91
e 8 92
e 8 94
e 8 97
e 8 99
e 8 100
e 8 101
e 8 103
e 8 106
e 8 107
e 8 110
e 8 111
e 8 116
e 8 120
e 8 121
e 8 122
e 8 125
e 8 126
e 8 127
e 8 132
e 8 134
e 8 135
e 8 137
e 8 138
e 8 139
e 8 143
e 8 147
e 9 10
e 9 11
e 9 12
e 9 14
e 9 18
e 9 24
e 9 26
e 9 28
e 9 30
e 9 32
e 9 33
e 9 36
e 9 39
e 9 45
e 9 47
e 9 50
e 9 55
e 9 57
e 9 62
e 9 68
e 9 72
e 9 75
e 9 78
e 9 82
e 9 83
e 9 84
e 9 86
e 9 87
e 9 89
e 9 90
e 9 94
e 9 95
e 9 96
e 9 98
e 9 102
e 9 106
e 9 107
e 9 111
e 9 115
e 9 122
e 9 124
e 9 125
e 9 126
e 9 128
e 9 129
e 9 130
e 9 131
e 9 132
e 9 143
e 9 144
e 9 146
e 9 148
e 10 16
e 10 18
e 10 20
e 10 25
e 10 26
e 10 29
e 10 33
e 10 35
e 10 48
e 10 50
e 10 51
e 10 52
e 10 56
e 10 58
e 10 65
e 10 70
e 10 71
e 10 72
e 10 73
e 10 75
e 10 76
e 10 79
e 10 81
e 10 82
e 10 85
e 10 92
e 10 94
e 10 101
e 10 105
e 10 106
e 10 108
e 10 110
e 10 115
e 10 116
e 10 117
e 10 118
e 10 119
e 10 125
e 10 126
e 10 127
e 10 129
e 10 131
e 10 132
e 10 136
e 10 138
e 10 139
e 10 143
e 10 145
e 10 147
e 10 148
e 11 12
e 11 13
e 11 14
e 11 15
e 11 16
e 11 17
e 11 19
e 11 20
e 11 22
e 11 26
e 11 27
e 11 30
e 11 32
e 11 33
e 11 34
e 11 36
e 11 40
e 11 42
e 11 43
e 11 45
e 11 46
e 11 48
e 11 49
e 11 52
e 11 57
e 11 58
e 11 67
e 11 68
e 11 75
e 11 76
e 11 83
e 11 88
e 11 93
e 11 95
e 11 96
e 11 101
e 11 104
e 11 105
e 11 109
e 11 110
e 11 112
e 11 117
e 11 118
e 11 121
e 11 122
e 11 126
e 11 130
e 11 131
e 11 133
e 11 135
e 11 136
e 11 137
e 11 141
e 11 142
e 11 144
e 11 146
e 11 148
e 12 15
e 12 18
e 12 19
e 12 21
e 12 24
e 12 26
e 12 28
e 12 29
e 12 35
e 12 36
e 12 38
e 12 40
e 12 44
e 12 45
e 12 46
e 12 51
e 12 53
e 12 56
e 12 57
e 12 58
e 12 60
e 12 61
e 12 64
e 12 65
e 12 66
e 12 68
e 12 69
e 12 72
e 12 75
e 12 77
e 12 78
e 12 85
e 12 86
e 12 89
e 12 90
e 12 97
e 12 98
e 12 102
e 12 103
e 12 104
e 12 105
e 12 106
e 12 107
e 12 108
e 12 113
e 12 116
e 12 117
e 12 118
e 12 120
e 12 123
e 12 124
e 12 125
e 12 128
e 12 133
e 12 134
e 12 138
e 12 140
e 12 141
e 12 143
e 12 146
e 12 147
e 12 149
e 13 17
e 13 22
e 13 23
e 13 25
e 13 26
e 13 29
e 13 32
e 13 37
e 13 39
e 13 40
e 13 41
e 13 43
e 13 44
e 13 45
e 13 46
e 13 49
e 13 50
e 13 59
e 13 60
e 13 65
e 13 66
e 13 67
e 13 77
e 13 79
e 13 80
e 13 83
e 13 86
e 13 88
e 13 89
e 13 94
e 13 95
e 13 96
e 13 98
e 13 104
e 13 111
e 13 112
e 13 113
e 13 114
e 13 115
e 13 118
e 13 120
e 13 125
e 13 126
e 13 127
e 13 131
e 13 132
e 13 135
e 13 141
e 13 147
e 13 148
e 13 149
e 13 150
e 14 16
e 14 18
e 14 20
e 14 23
e 14 27
e 14 28
e 14 30
e 14 32
e 14 37
e 14 38
e 14 39
e 14 43
e 14 44
e 14 45
e 14 47
e 14 56
e 14 57
e 14 58
e 14 59
e 14 60
e 14 62
e 14 63
e 14 64
e 14 67
e 14 70
e 14 71
e 14 72
e 14 73
e 14 75
e 14 77
e 14 78
e 14 81
e 14 82
e 14 83
e 14 84
e 14 89
e 14 93
e 14 95
e 14 98
e 14 99
e 14 101
e 14 103
e 14 104
e 14 105
e 14 107
e 14 108
e 14 109
e 14 113
e 14 116
e 14 117
e 14 119
e 14 121
e 14 124
e 14 127
e 14 130
e 14 132
e 14 137
e 14 139
e 14 141
e 14 146
e 15 17
e 15 21
e 15 25
e 15 26
e 15 27
e 15 30
e 15 32
e 15 33
e 15 36
e 15 37
e 15 40
e 15 41
e 15 43
e 15 44
e 15 49
e 15 50
e 15 52
e 15 60
e 15 61
e 15 64
e 15 65
e 15 68
e 15 72
e 15 73
e 15 75
e 15 76
e 15 79
e 15 82
e 15 83
e 15 84
e 15 89
e 15 93
e 15 94
e 15 95
e 15 96
e 15 97
e 15 98
e 15 100
e 15 101
e 15 102
e 15 103
e 15 105
e 15 106
e 15 109
e 15 110
e 15 115
e 15 117
e 15 118
e 15 119
e 15 122
e 15 123
e 15 124
e 15 125
e 15 126
e 15 128
e 15 131
e 15 133
e 15 139
e 15 141
e 15 142
e 15 143
e 15 146
e 15 149
e 15 150
e 16 17
e 16 18
e 16 19
e 16 22
e 16 23
e 16 25
e 16 26
e 16 30
e 16 32
e 16 33
e 16 34
e 16 37
e 16 38
e 16 42
e 16 43
e 16 44
e 16 45
e 16 49
e 16 51
e 16 53
e 16 57
e 16 59
e 16 61
e 16 64
e 16 68
e 16 69
e 16 70
e 16 72
e 16 75
e 16 76
e 16 79
e 16 82
e 16 83
e 16 85
e 16 86
e 16 88
e 16 90
e 16 92
e 16 95
e 16 97
e 16 98
e 16 100
e 16 101
e 16 108
e 16 110
e 16 111
e 16 113
e 16 114
e 16 118
e 16 119
e 16 120
e 16 124
e 16 125
e 16 131
e 16 133
e 16 136
e 16 138
e 16 147
e 16 149
e 17 20
e 17 24
e 17 27
e 17 35
e 17 36
e 17 37
e 17 39
e 17 41
e 17 42
e 17 50
e 17 51
e 17 53
e 17 57
e 17 58
e 17 60
e 17 62
e 17 63
e 17 71
e 17 77
e 17 82
e 17 84
e 17 90
e 17 96
e 17 99
e 17 101
e 17 104
e 17 105
e 17 108
e 17 112
e 17 114
e 17 116
e 17 117
e 17 122
e 17 129
e 17 134
e 17 137
e 17 140
e 17 142
e 17 143
e 17 145
e 17 146
e 17 149
e 17 150
e 18 21
e 18 22
e 18 23
e 18 24
e 18 30
e 18 31
e 18 33
e 18 34
e 18 36
e 18 38
e 18 40
e 18 44
e 18 49
e 18 55
e 18 56
e 18 63
e 18 65
e 18 66
e 18 67
e 18 68
e 18 70
e 18 73
e 18 74
e 18 75
e 18 79
e 18 86
e 18 90
e 18 92
e 18 95
e 18 97
e 18 99
e 18 100
e 18 101
e 18 102
e 18 104
e 18 107
e 18 108
e 18 111
e 18 115
e 18 117
e 18 119
e 18 121
e 18 125
e 18 129
e 18 132
e 18 133
e 18 138
e 18 139
e 18 141
e 18 142
e 18 147
e 18 149
e 18 150
e 19 20
e 19 21
e 19 22
e 19 24
e 19 27
e 19 30
e 19 31
e 19 33
e 19 35
e 19 37
e 19 38
e 19 48
e 19 49
e 19 53
e 19 54
e 19 58
e 19 59
e 19 61
e 19 62
e 19 66
e 19 68
e 19 69
e 19 70
e 19 75
e 19 77
e 19 78
e 19 81
e 19 82
e 19 84
e 19 85
e 19 86
e 19 87
e 19 93
e 19 94
e 19 99
e 19 101
e 19 102
e 19 103
e 19 104
e 19 107
e 19 109
e 19 110
e 19 111
e 19 112
e 19 115
e 19 116
e 19 119
e 19 121
e 19 125
e 19 127
e 19 128
e 19 129
e 19 132
e 19 133
e 19 134
e 19 138
e 19 141
e 19 143
e 19 145
e 19 149
e 19 150
e 20 22
e 20 23
e 20 29
e 20 32
e 20 35
e 20 36
e 20 40
e 20 41
e 20 42
e 20 45
e 20 46
e 20 47
e 20 54
e 20 55
e 20 56
e 20 59
e 20 62
e 20 63
e 20 65
e 20 67
e 20 73
e 20 81
e 20 82
e 20 84
e 20 85
e 20 86
e 20 87
e 20 88
e 20 89
e 20 90
e 20 96
e 20 97
e 20 98
e 20 101
e 20 104
e 20 105
e 20 108
e 20 110
e 20 113
e 20 117
e 20 121
e 20 124
e 20 131
e 20 132
e 20 134
e 20 140
e 20 141
e 20 144
e 20 145
e 20 150
e 21 22
e 21 26
e 21 28
e 21 29
e 21 33
e 21 35
e 21 36
e 21 42
e 21 43
e 21 44
e 21 53
e 21 54
e 21 58
e 21 61
e 21 62
e 21 71
e 21 73
e 21 74
e 21 75
e 21 78
e 21 79
e 21 80
e 21 83
e 21 84
e 21 86
e 21 88
e 21 90
e 21 92
e 21 93
e 21 94
e 21 95
e 21 102
e 21 104
e 21 108
e 21 109
e 21 110
e 21 111
e 21 114
e 21 115
e 21 116
e 21 117
e 21 118
e 21 119
e 21 122
e 21 128
e 21 130
e 21 131
e 21 133
e 21 135
e 21 136
e 21 138
e 21 139
e 21 141
e 21 143
e 21 145
e 21 147
e 21 148
e 22 26
e 22 27
e 22 30
e 22 34
e 22 35
e 22 37
e 22 38
e 22 40
e 22 41
e 22 42
e 22 55
e 22 56
e 22 57
e 22 61
e 22 62
e 22 63
e 22 70
e 22 71
e 22 72
e 22 73
e 22 76
e 22 77
e 22 81
e 22 89
e 22 94
e 22 95
e 22 96
e 22 100
e 22 102
e 22 104
e 22 106
e 22 113
e 22 114
e 22 119
e 22 123
e 22 130
e 22 131
e 22 133
e 22 135
e 22 138
e 22 142
e 22 144
e 22 145
e 23 25
e 23 26
e 23 29
e 23 30
e 23 31
e 23 32
e 23 33
e 23 34
e 23 36
e 23 38
e 23 39
e 23 41
e 23 44
e 23 45
e 23 47
e 23 53
e 23 54
e 23 55
e 23 56
e 23 67
e 23 74
e 23 75
e 23 78
e 23 79
e 23 84
e 23 86
e 23 92
e 23 93
e 23 95
e 23 96
e 23 97
e 23 98
e 23 99
e 23 103
e 23 105
e 23 109
e 23 113
e 23 114
e 23 115
e 23 118
e 23 120
e 23 121
e 23 123
e 23 125
e 23 127
e 23 128
e 23 131
e 23 132
e 23 134
e 23 135
e 23 137
e 23 140
e 23 141
e 23 143
e 23 148
e 23 150
e 24 26
e 24 30
e 24 32
e 24 33
e 24 35
e 24 41
e 24 44
e 24 46
e 24 47
e 24 50
e 24 55
e 24 58
e 24 61
e 24 62
e 24 63
e 24 64
e 24 65
e 24 66
e 24 67
e 24 69
e 24 71
e 24 72
e 24 74
e 24 75
e 24 76
e 24 78
e 24 83
e 24 85
e 24 88
e 24 90
e 24 93
e 24 94
e 24 96
e 24 101
e 24 104
e 24 105
e 24 108
e 24 110
e 24 111
e 24 114
e 24 115
e 24 117
e 24 120
e 24 125
e 24 126
e 24 127
e 24 128
e 24 132
e 24 137
e 24 139
e 24 142
e 24 145
e 24 146
e 24 149
e 25 27
e 25 30
e 25 32
e 25 34
e 25 36
e 25 37
e 25 39
e 25 42
e 25 49
e 25 51
e 25 52
e 25 55
e 25 57
e 25 61
e 25 64
e 25 66
e 25 68
e 25 71
e 25 72
e 25 77
e 25 78
e 25 82
e 25 83
e 25 85
e 25 86
e 25 92
e 25 93
e 25 94
e 25 95
e 25 96
e 25 102
e 25 104
e 25 105
e 25 106
e 25 107
e 25 110
e 25 111
e 25 115
e 25 116
e 25 117
e 25 124
e 25 130
e 25 133
e 25 135
e 25 139
e 25 141
e 25 142
e 25 146
e 25 147
e 25 148
e 26 27
e 26 30
e 26 33
e 26 36
e 26 39
e 26 41
e 26 43
e 26 45
e 26 46
e 26 47
e 26 49
e 26 52
e 26 54
e 26 56
e 26 58
e 26 62
e 26 69
e 26 74
e 26 75
e 26 76
e 26 79
e 26 83
e 26 85
e 26 86
e 26 89
e 26 91
e 26 93
e 26 96
e 26 97
e 26 98
e 26 100
e 26 102
e 26 103
e 26 107
e 26 111
e 26 112
e 26 114
e 26 119
e 26 120
e 26 122
e 26 123
e 26 124
e 26 133
e 26 137
e 26 138
e 26 139
e 26 141
e 26 144
e 26 150
e 27 32
e 27 35
e 27 36
e 27 40
e 27 41
e 27 44
e 27 47
e 27 50
e 27 51
e 27 52
e 27 53
e 27 54
e 27 56
e 27 64
e 27 65
e 27 66
e 27 68
e 27 72
e 27 74
e 27 78
e 27 79
e 27 81
e 27 82
e 27 87
e 27 88
e 27 93
e 27 96
e 27 97
e 27 100
e 27 105
e 27 109
e 27 112
e 27 114
e 27 119
e 27 120
e 27 121
e 27 124
e 27 126
e 27 128
e 27 129
e 27 130
e 27 131
e 27 132
e 27 135
e 27 140
e 27 142
e 27 144
e 27 147
e 28 31
e 28 34
e 28 35
e 28 36
e 28 38
e 28 39
e 28 41
e 28 42
e 28 44
e 28 49
e 28 50
e 28 51
e 28 52
e 28 56
e 28 58
e 28 60
e 28 61
e 28 62
e 28 66
e 28 68
e 28 69
e 28 70
e 28 73
e 28 76
e 28 78
e 28 81
e 28 82
e 28 86
e 28 88
e 28 89
e 28 90
e 28 91
e 28 93
e 28 94
e 28 100
e 28 101
e 28 109
e 28 110
e 28 111
e 28 113
e 28 114
e 28 117
e 28 120
e 28 122
e 28 124
e 28 125
e 28 126
e 28 127
e 28 134
e 28 141
e 28 142
e 28 147
e 28 148
e 28 149
e 28 150
e 29 31
e 29 35
e 29 38
e 29 41
e 29 43
e 29 44
e 29 45
e 29 47
e 29 48
e 29 53
e 29 56
e 29 58
e 29 62
e 29 65
e 29 66
e 29 68
e 29 70
e 29 71
e 29 75
e 29 78
e 29 80
e 29 81
e 29 83
e 29 85
e 29 86
e 29 87
e 29 91
e 29 92
e 29 94
e 29 95
e 29 97
e 29 99
e 29 100
e 29 101
e 29 106
e 29 111
e 29 112
e 29 115
e 29 116
e 29 118
e 29 120
e 29 121
e 29 123
e 29 127
e 29 130
e 29 131
e 29 135
e 29 136
e 29 138
e 29 140
e 29 145
e 29 147
e 29 149
e 30 32
e 30 34
e 30 36
e 30 37
e 30 40
e 30 41
e 30 45
e 30 46
e 30 51
e 30 54
e 30 56
e 30 58
e 30 62
e 30 66
e 30 67
e 30 71
e 30 72
e 30 73
e 30 79
e 30 87
e 30 89
e 30 91
e 30 93
e 30 94
e 30 96
e 30 98
e 30 99
e 30 107
e 30 110
e 30 116
e 30 120
e 30 125
e 30 127
e 30 130
e 30 132
e 30 134
e 30 140
e 30 142
e 30 147
e 30 148
e 31 33
e 31 34
e 31 36
e 31 39
e 31 43
e 31 47
e 31 49
e 31 51
e 31 54
e 31 55
e 31 56
e 31 59
e 31 61
e 31 62
e 31 63
e 31 66
e 31 67
e 31 68
e 31 69
e 31 73
e 31 75
e 31 76
e 31 77
e 31 79
e 31 80
e 31 82
e 31 90
e 31 92
e 31 93
e 31 94
e 31 97
e 31 99
e 31 100
e 31 102
e 31 103
e 31 106
e 31 107
e 31 108
e 31 109
e 31 111
e 31 113
e 31 114
e 31 117
e 31 119
e 31 120
e 31 121
e 31 125
e 31 127
e 31 128
e 31 130
e 31 131
e 31 133
e 31 136
e 31 140
e 31 142
e 31 143
e 31 145
e 31 148
e 31 150
e 32 33
e 32 35
e 32 39
e 32 40
e 32 42
e 32 44
e 32 45
e 32 48
e 32 49
e 32 54
e 32 56
e 32 57
e 32 59
e 32 60
e 32 61
e 32 63
e 32 67
e 32 71
e 32 79
e 32 80
e 32 81
e 32 82
e 32 85
e 32 86
e 32 87
e 32 88
e 32 92
e 32 94
e 32 98
e 32 102
e 32 103
e 32 104
e 32 105
e 32 110
e 32 115
e 32 119
e 32 123
e 32 125
e 32 129
e 32 131
e 32 134
e 32 135
e 32 138
e 32 140
e 32 144
e 32 145
e 32 146
e 32 147
e 32 150
e 33 36
e 33 37
e 33 43
e 33 44
e 33 49
e 33 59
e 33 64
e 33 65
e 33 67
e 33 68
e 33 70
e 33 72
e 33 73
e 33 75
e 33 76
e 33 77
e 33 78
e 33 79
e 33 81
e 33 82
e 33 83
e 33 86
e 33 90
e 33 93
e 33 95
e 33 96
e 33 97
e 33 99
e 33 103
e 33 104
e 33 105
e 33 106
e 33 108
e 33 111
e 33 112
e 33 113
e 33 114
e 33 115
e 33 117
e 33 118
e 33 120
e 33 122
e 33 123
e 33 125
e 33 126
e 33 129
e 33 131
e 33 134
e 33 135
e 33 136
e 33 139
e 33 141
e 33 143
e 33 145
e 33 146
e 33 149
e 33 150
e 34 35
e 34 36
e 34 39
e 34 40
e 34 41
e 34 42
e 34 47
e 34 48
e 34 49
e 34 55
e 34 56
e 34 58
e 34 65
e 34 66
e 34 67
e 34 68
e 34 69
e 34 70
e 34 77
e 34 87
e 34 88
e 34 93
e 34 101
e 34 103
e 34 106
e 34 109
e 34 110
e 34 114
e 34 115
e 34 116
e 34 118
e 34 119
e 34 122
e 34 124
e 34 125
e 34 126
e 34 128
e 34 131
e 34 132
e 34 135
e 34 146
e 34 147
e 34 148
e 34 150
e 35 36
e 35 37
e 35 44
e 35 45
e 35 47
e 35 48
e 35 51
e 35 57
e 35 61
e 35 65
e 35 67
e 35 68
e 35 69
e 35 71
e 35 73
e 35 78
e 35 80
e 35 82
e 35 85
e 35 87
e 35 88
e 35 93
e 35 98
e 35 101
e 35 102
e 35 104
e 35 105
e 35 106
e 35 107
e 35 108
e 35 109
e 35 113
e 35 116
e 35 120
e 35 122
e 35 123
e 35 124
e 35 125
e 35 128
e 35 129
e 35 132
e 35 135
e 35 137
e 35 143
e 35 146
e 35 148
e 36 37
e 36 38
e 36 41
e 36 47
e 36 48
e 36 50
e 36 51
e 36 53
e 36 56
e 36 57
e 36 58
e 36 60
e 36 62
e 36 65
e 36 66
e 36 68
e 36 71
e 36 72
e 36 74
e 36 80
e 36 81
e 36 89
e 36 90
e 36 91
e 36 93
e 36 94
e 36 99
e 36 102
e 36 103
e 36 109
e 36 112
e 36 114
e 36 118
e 36 123
e 36 124
e 36 125
e 36 129
e 36 131
e 36 132
e 36 133
e 36 136
e 36 137
e 36 138
e 36 139
e 36 141
e 36 142
e 36 144
e 36 145
e 36 146
e 36 147
e 36 148
e 36 149
e 36 150
e 37 38
e 37 42
e 37 44
e 37 45
e 37 47
e 37 49
e 37 51
e 37 53
e 37 55
e 37 56
e 37 57
e 37 62
e 37 63
e 37 65
e 37 67
e 37 68
e 37 71
e 37 74
e 37 75
e 37 76
e 37 77
e 37 79
e 37 80
e 37 83
e 37 84
e 37 88
e 37 93
e 37 96
e 37 97
e 37 98
e 37 99
e 37 100
e 37 103
e 37 105
e 37 107
e 37 108
e 37 109
e 37 110
e 37 117
e 37 120
e 37 121
e 37 123
e 37 128
e 37 129
e 37 132
e 37 135
e 37 136
e 37 140
e 37 141
e 37 142
e 37 143
e 37 144
e 38 39
e 38 40
e 38 45
e 38 47
e 38 48
e 38 52
e 38 55
e 38 56
e 38 57
e 38 58
e 38 62
e 38 64
e 38 65
e 38 69
e 38 71
e 38 72
e 38 74
e 38 78
e 38 79
e 38 81
e 38 89
e 38 90
e 38 91
e 38 94
e 38 98
e 38 99
e 38 102
e 38 104
e 38 108
e 38 110
e 38 113
e 38 115
e 38 116
e 38 118
e 38 122
e 38 123
e 38 126
e 38 139
e 38 143
e 38 148
e 39 40
e 39 44
e 39 51
e 39 55
e 39 56
e 39 58
e 39 61
e 39 63
e 39 67
e 39 72
e 39 79
e 39 83
e 39 87
e 39 90
e 39 91
e 39 92
e 39 96
e 39 102
e 39 104
e 39 108
e 39 113
e 39 114
e 39 116
e 39 119
e 39 122
e 39 125
e 39 128
e 39 137
e 39 139
e 39 142
e 39 146
e 39 148
e 39 149
e 39 150
e 40 41
e 40 43
e 40 44
e 40 47
e 40 50
e 40 51
e 40 53
e 40 54
e 40 55
e 40 58
e 40 62
e 40 66
e 40 68
e 40 69
e 40 71
e 40 73
e 40 75
e 40 76
e 40 77
e 40 78
e 40 81
e 40 83
e 40 86
e 40 89
e 40 92
e 40 93
e 40 96
e 40 100
e 40 106
e 40 111
e 40 114
e 40 115
e 40 116
e 40 123
e 40 130
e 40 133
e 40 134
e 40 136
e 40 137
e 40 139
e 40 140
e 40 141
e 40 143
e 40 144
e 40 147
e 40 148
e 41 42
e 41 45
e 41 46
e 41 50
e 41 51
e 41 52
e 41 53
e 41 54
e 41 57
e 41 62
e 41 63
e 41 64
e 41 65
e 41 67
e 41 69
e 41 70
e 41 74
e 41 78
e 41 81
e 41 84
e 41 85
e 41 87
e 41 89
e 41 96
e 41 97
e 41 102
e 41 110
e 41 111
e 41 112
e 41 114
e 41 120
e 41 122
e 41 123
e 41 125
e 41 127
e 41 129
e 41 130
e 41 131
e 41 133
e 41 134
e 41 137
e 41 144
e 41 145
e 41 146
e 41 148
e 41 149
e 41 150
e 42 49
e 42 54
e 42 56
e 42 57
e 42 61
e 42 62
e 42 74
e 42 75
e 42 76
e 42 77
e 42 78
e 42 81
e 42 82
e 42 83
e 42 85
e 42 95
e 42 97
e 42 101
e 42 103
e 42 104
e 42 105
e 42 106
e 42 107
e 42 108
e 42 110
e 42 111
e 42 115
e 42 116
e 42 117
e 42 119
e 42 123
e 42 126
e 42 134
e 42 141
e 42 143
e 42 145
e 42 150
e 43 49
e 43 51
e 43 54
e 43 58
e 43 59
e 43 60
e 43 61
e 43 63
e 43 66
e 43 68
e 43 72
e 43 73
e 43 74
e 43 75
e 43 76
e 43 77
e 43 78
e 43 79
e 43 81
e 43 84
e 43 85
e 43 88
e 43 89
e 43 92
e 43 96
e 43 98
e 43 99
e 43 103
e 43 109
e 43 110
e 43 111
e 43 116
e 43 117
e 43 119
e 43 123
e 43 130
e 43 131
e 43 132
e 43 136
e 43 137
e 43 141
e 43 143
e 43 145
e 43 146
e 43 147
e 43 148
e 44 47
e 44 56
e 44 59
e 44 61
e 44 63
e 44 64
e 44 65
e 44 66
e 44 71
e 44 73
e 44 75
e 44 76
e 44 78
e 44 80
e 44 83
e 44 84
e 44 85
e 44 86
e 44 87
e 44 95
e 44 99
e 44 103
e 44 107
e 44 109
e 44 112
e 44 113
e 44 117
e 44 118
e 44 119
e 44 121
e 44 122
e 44 125
e 44 126
e 44 131
e 44 133
e 44 142
e 45 46
e 45 47
e 45 51
e 45 52
e 45 56
e 45 59
e 45 61
e 45 62
e 45 63
e 45 66
e 45 75
e 45 76
e 45 77
e 45 82
e 45 90
e 45 91
e 45 92
e 45 94
e 45 95
e 45 100
e 45 103
e 45 104
e 45 105
e 45 109
e 45 110
e 45 113
e 45 114
e 45 115
e 45 116
e 45 117
e 45 118
e 45 122
e 45 124
e 45 125
e 45 129
e 45 132
e 45 138
e 45 139
e 45 145
e 45 148
e 46 47
e 46 49
e 46 50
e 46 56
e 46 57
e 46 59
e 46 60
e 46 61
e 46 62
e 46 63
e 46 64
e 46 66
e 46 77
e 46 78
e 46 80
e 46 81
e 46 83
e 46 88
e 46 89
e 46 90
e 46 91
e 46 92
e 46 93
e 46 97
e 46 102
e 46 104
e 46 107
e 46 110
e 46 111
e 46 112
e 46 114
e 46 119
e 46 122
e 46 124
e 46 125
e 46 126
e 46 128
e 46 129
e 46 134
e 46 135
e 46 138
e 46 139
e 46 141
e 46 142
e 46 145
e 46 146
e 47 54
e 47 55
e 47 61
e 47 62
e 47 65
e 47 67
e 47 70
e 47 71
e 47 72
e 47 73
e 47 77
e 47 79
e 47 82
e 47 85
e 47 86
e 47 92
e 47 93
e 47 97
e 47 98
e 47 100
e 47 101
e 47 107
e 47 110
e 47 114
e 47 117
e 47 118
e 47 119
e 47 120
e 47 121
e 47 123
e 47 124
e 47 128
e 47 136
e 47 139
e 47 141
e 47 145
e 47 146
e 47 148
e 47 150
e 48 53
e 48 57
e 48 58
e 48 61
e 48 62
e 48 63
e 48 64
e 48 65
e 48 71
e 48 73
e 48 75
e 48 78
e 48 79
e 48 81
e 48 83
e 48 89
e 48 91
e 48 96
e 48 97
e 48 105
e 48 111
e 48 112
e 48 114
e 48 117
e 48 119
e 48 121
e 48 124
e 48 127
e 48 128
e 48 132
e 48 134
e 48 138
e 48 139
e 48 140
e 48 144
e 49 50
e 49 51
e 49 55
e 49 56
e 49 57
e 49 59
e 49 61
e 49 62
e 49 65
e 49 68
e 49 73
e 49 74
e 49 76
e 49 77
e 49 79
e 49 80
e 49 85
e 49 86
e 49 92
e 49 93
e 49 97
e 49 98
e 49 100
e 49 101
e 49 105
e 49 106
e 49 109
e 49 115
e 49 117
e 49 118
e 49 120
e 49 122
e 49 124
e 49 129
e 49 132
e 49 133
e 49 134
e 49 135
e 49 141
e 49 142
e 49 148
e 50 55
e 50 56
e 50 58
e 50 60
e 50 64
e 50 65
e 50 66
e 50 67
e 50 68
e 50 71
e 50 72
e 50 74
e 50 75
e 50 76
e 50 77
e 50 78
e 50 79
e 50 80
e 50 81
e 50 84
e 50 85
e 50 87
e 50 97
e 50 99
e 50 103
e 50 104
e 50 112
e 50 113
e 50 115
e 50 120
e 50 121
e 50 122
e 50 125
e 50 130
e 50 133
e 50 134
e 50 135
e 50 139
e 50 141
e 50 144
e 50 145
e 51 55
e 51 57
e 51 61
e 51 62
e 51 63
e 51 64
e 51 68
e 51 72
e 51 79
e 51 84
e 51 85
e 51 88
e 51 89
e 51 90
e 51 94
e 51 96
e 51 98
e 51 101
e 51 108
e 51 112
e 51 113
e 51 114
e 51 117
e 51 123
e 51 124
e 51 126
e 51 127
e 51 139
e 51 146
e 51 147
e 51 148
e 51 149
e 52 60
e 52 63
e 52 66
e 52 67
e 52 70
e 52 72
e 52 76
e 52 77
e 52 82
e 52 83
e 52 88
e 52 89
e 52 91
e 52 92
e 52 94
e 52 95
e 52 96
e 52 101
e 52 102
e 52 104
e 52 107
e 52 108
e 52 109
e 52 111
e 52 114
e 52 116
e 52 119
e 52 120
e 52 122
e 52 126
e 52 127
e 52 131
e 52 136
e 52 141
e 52 146
e 53 54
e 53 55
e 53 56
e 53 59
e 53 63
e 53 64
e 53 66
e 53 67
e 53 68
e 53 74
e 53 79
e 53 80
e 53 81
e 53 82
e 53 86
e 53 88
e 53 89
e 53 90
e 53 92
e 53 93
e 53 95
e 53 96
e 53 99
e 53 100
e 53 104
e 53 108
e 53 109
e 53 112
e 53 113
e 53 115
e 53 116
e 53 120
e 53 121
e 53 122
e 53 124
e 53 125
e 53 126
e 53 128
e 53 131
e 53 135
e 53 138
e 53 139
e 53 141
e 53 143
e 53 144
e 53 145
e 53 146
e 53 148
e 54 58
e 54 60
e 54 61
e 54 71
e 54 76
e 54 77
e 54 78
e 54 80
e 54 83
e 54 86
e 54 88
e 54 91
e 54 95
e 54 96
e 54 97
e 54 99
e 54 101
e 54 104
e 54 105
e 54 109
e 54 112
e 54 113
e 54 120
e 54 125
e 54 129
e 54 134
e 54 139
e 54 142
e 54 143
e 54 146
e 54 147
e 54 150
e 55 56
e 55 58
e 55 59
e 55 67
e 55 68
e 55 69
e 55 70
e 55 72
e 55 73
e 55 74
e 55 76
e 55 77
e 55 80
e 55 83
e 55 84
e 55 85
e 55 87
e 55 92
e 55 94
e 55 96
e 55 99
e 55 101
e 55 102
e 55 104
e 55 111
e 55 113
e 55 115
e 55 116
e 55 118
e 55 120
e 55 124
e 55 129
e 55 130
e 55 133
e 55 135
e 55 136
e 55 137
e 55 144
e 55 145
e 55 149
e 55 150
e 56 58
e 56 61
e 56 62
e 56 63
e 56 64
e 56 66
e 56 68
e 56 69
e 56 71
e 56 74
e 56 76
e 56 79
e 56 82
e 56 84
e 56 85
e 56 86
e 56 89
e 56 91
e 56 100
e 56 108
e 56 109
e 56 110
e 56 111
e 56 115
e 56 117
e 56 120
e 56 123
e 56 125
e 56 126
e 56 128
e 56 129
e 56 140
e 56 141
e 56 143
e 56 146
e 56 148
e 57 58
e 57 69
e 57 70
e 57 71
e 57 74
e 57 75
e 57 77
e 57 79
e 57 80
e 57 81
e 57 85
e 57 88
e 57 93
e 57 94
e 57 97
e 57 98
e 57 99
e 57 102
e 57 105
e 57 107
e 57 108
e 57 109
e 57 111
e 57 113
e 57 114
e 57 115
e 57 119
e 57 124
e 57 126
e 57 128
e 57 130
e 57 132
e 57 133
e 57 135
e 57 136
e 57 139
e 57 140
e 57 141
e 57 142
e 57 144
e 57 146
e 57 149
e 58 60
e 58 70
e 58 74
e 58 76
e 58 79
e 58 83
e 58 85
e 58 93
e 58 96
e 58 99
e 58 102
e 58 103
e 58 104
e 58 110
e 58 111
e 58 116
e 58 119
e 58 121
e 58 122
e 58 127
e 58 132
e 58 136
e 58 138
e 58 140
e 58 141
e 58 145
e 58 148
e 58 149
e 58 150
e 59 62
e 59 63
e 59 64
e 59 65
e 59 66
e 59 68
e 59 74
e 59 77
e 59 78
e 59 83
e 59 85
e 59 88
e 59 96
e 59 103
e 59 104
e 59 105
e 59 106
e 59 109
e 59 113
e 59 116
e 59 121
e 59 123
e 59 124
e 59 125
e 59 126
e 59 128
e 59 133
e 59 134
e 59 138
e 59 141
e 59 143
e 59 145
e 59 150
e 60 64
e 60 67
e 60 69
e 60 70
e 60 71
e 60 72
e 60 73
e 60 74
e 60 75
e 60 77
e 60 80
e 60 82
e 60 83
e 60 84
e 60 87
e 60 102
e 60 103
e 60 108
e 60 109
e 60 112
e 60 118
e 60 119
e 60 121
e 60 124
e 60 126
e 60 128
e 60 130
e 60 142
e 60 143
e 60 147
e 60 148
e 60 150
e 61 63
e 61 65
e 61 68
e 61 75
e 61 76
e 61 79
e 61 85
e 61 89
e 61 92
e 61 94
e 61 95
e 61 96
e 61 97
e 61 99
e 61 103
e 61 105
e 61 111
e 61 116
e 61 117
e 61 118
e 61 121
e 61 122
e 61 126
e 61 128
e 61 131
e 61 132
e 61 134
e 61 137
e 61 140
e 61 141
e 61 143
e 61 144
e 61 145
e 62 66
e 62 71
e 62 80
e 62 83
e 62 86
e 62 89
e 62 90
e 62 91
e 62 92
e 62 94
e 62 95
e 62 97
e 62 99
e 62 103
e 62 104
e 62 105
e 62 108
e 62 111
e 62 112
e 62 114
e 62 119
e 62 121
e 62 122
e 62 123
e 62 125
e 62 126
e 62 130
e 62 134
e 62 138
e 62 141
e 62 142
e 62 147
e 62 148
e 62 150
e 63 64
e 63 67
e 63 68
e 63 69
e 63 70
e 63 72
e 63 73
e 63 77
e 63 79
e 63 82
e 63 83
e 63 84
e 63 86
e 63 90
e 63 92
e 63 93
e 63 95
e 63 96
e 63 98
e 63 100
e 63 101
e 63 102
e 63 104
e 63 105
e 63 106
e 63 110
e 63 111
e 63 115
e 63 116
e 63 118
e 63 119
e 63 123
e 63 124
e 63 125
e 63 142
e 63 145
e 63 149
e 64 65
e 64 70
e 64 71
e 64 74
e 64 76
e 64 77
e 64 79
e 64 80
e 64 82
e 64 83
e 64 84
e 64 88
e 64 91
e 64 92
e 64 93
e 64 94
e 64 96
e 64 100
e 64 107
e 64 108
e 64 110
e 64 112
e 64 113
e 64 115
e 64 116
e 64 120
e 64 125
e 64 126
e 64 127
e 64 131
e 64 134
e 64 136
e 64 138
e 64 139
e 64 140
e 64 142
e 64 144
e 64 145
e 64 148
e 65 66
e 65 70
e 65 71
e 65 74
e 65 75
e 65 76
e 65 77
e 65 80
e 65 82
e 65 84
e 65 85
e 65 88
e 65 89
e 65 93
e 65 99
e 65 100
e 65 101
e 65 102
e 65 103
e 65 106
e 65 116
e 65 120
e 65 121
e 65 124
e 65 126
e 65 127
e 65 128
e 65 131
e 65 132
e 65 135
e 65 136
e 65 138
e 65 139
e 65 143
e 65 144
e 65 146
e 65 148
e 65 149
e 66 69
e 66 70
e 66 72
e 66 73
e 66 74
e 66 78
e 66 80
e 66 81
e 66 82
e 66 85
e 66 88
e 66 91
e 66 96
e 66 97
e 66 99
e 66 102
e 66 103
e 66 105
e 66 107
e 66 113
e 66 117
e 66 119
e 66 120
e 66 125
e 66 126
e 66 128
e 66 129
e 66 133
e 66 137
e 66 139
e 66 142
e 66 143
e 66 145
e 66 147
e 66 148
e 66 149
e 66 150
e 67 69
e 67 70
e 67 73
e 67 75
e 67 77
e 67 79
e 67 80
e 67 81
e 67 82
e 67 84
e 67 85
e 67 86
e 67 89
e 67 92
e 67 100
e 67 102
e 67 103
e 67 104
e 67 106
e 67 109
e 67 110
e 67 111
e 67 112
e 67 113
e 67 114
e 67 117
e 67 121
e 67 122
e 67 124
e 67 125
e 67 127
e 67 129
e 67 130
e 67 132
e 67 134
e 67 140
e 67 141
e 67 144
e 67 145
e 67 146
e 67 147
e 68 69
e 68 72
e 68 73
e 68 76
e 68 78
e 68 79
e 68 81
e 68 83
e 68 86
e 68 94
e 68 96
e 68 97
e 68 99
e 68 100
e 68 101
e 68 107
e 68 108
e 68 109
e 68 110
e 68 111
e 68 115
e 68 122
e 68 124
e 68 128
e 68 131
e 68 132
e 68 137
e 68 138
e 68 139
e 68 142
e 68 148
e 68 149
e 68 150
e 69 70
e 69 72
e 69 74
e 69 76
e 69 77
e 69 78
e 69 79
e 69 83
e 69 84
e 69 91
e 69 92
e 69 99
e 69 100
e 69 101
e 69 104
e 69 105
e 69 107
e 69 109
e 69 110
e 69 114
e 69 116
e 69 117
e 69 118
e 69 120
e 69 129
e 69 132
e 69 134
e 69 138
e 69 139
e 69 142
e 69 143
e 70 74
e 70 75
e 70 76
e 70 77
e 70 78
e 70 79
e 70 81
e 70 82
e 70 85
e 70 87
e 70 90
e 70 92
e 70 93
e 70 95
e 70 96
e 70 97
e 70 103
e 70 109
e 70 113
e 70 116
e 70 117
e 70 119
e 70 123
e 70 125
e 70 126
e 70 127
e 70 130
e 70 131
e 70 133
e 70 134
e 70 135
e 70 136
e 70 138
e 70 139
e 70 140
e 70 141
e 70 145
e 70 146
e 70 148
e 70 150
e 71 75
e 71 76
e 71 77
e 71 78
e 71 81
e 71 84
e 71 85
e 71 86
e 71 95
e 71 96
e 71 99
e 71 100
e 71 104
e 71 106
e 71 109
e 71 112
e 71 113
e 71 114
e 71 115
e 71 119
e 71 122
e 71 124
e 71 126
e 71 130
e 71 142
e 71 148
e 72 76
e 72 78
e 72 82
e 72 85
e 72 86
e 72 87
e 72 90
e 72 93
e 72 95
e 72 96
e 72 99
e 72 101
e 72 104
e 72 106
e 72 108
e 72 109
e 72 110
e 72 111
e 72 112
e 72 113
e 72 115
e 72 117
e 72 118
e 72 119
e 72 121
e 72 124
e 72 125
e 72 133
e 72 134
e 72 135
e 72 137
e 72 138
e 72 143
e 72 145
e 72 146
e 72 149
e 73 78
e 73 79
e 73 81
e 73 85
e 73 88
e 73 94
e 73 95
e 73 97
e 73 103
e 73 106
e 73 107
e 73 108
e 73 114
e 73 117
e 73 118
e 73 121
e 73 123
e 73 127
e 73 132
e 73 134
e 73 135
e 73 137
e 73 140
e 73 142
e 73 144
e 73 145
e 73 146
e 73 148
e 73 150
e 74 77
e 74 82
e 74 85
e 74 88
e 74 89
e 74 90
e 74 93
e 74 97
e 74 98
e 74 99
e 74 100
e 74 101
e 74 103
e 74 108
e 74 109
e 74 113
e 74 116
e 74 117
e 74 125
e 74 127
e 74 131
e 74 136
e 74 138
e 74 143
e 74 147
e 75 78
e 75 79
e 75 86
e 75 91
e 75 92
e 75 95
e 75 98
e 75 101
e 75 104
e 75 106
e 75 108
e 75 109
e 75 110
e 75 111
e 75 112
e 75 118
e 75 119
e 75 122
e 75 124
e 75 126
e 75 129
e 75 131
e 75 132
e 75 138
e 75 141
e 75 144
e 75 145
e 75 149
e 76 78
e 76 81
e 76 82
e 76 85
e 76 91
e 76 93
e 76 98
e 76 99
e 76 103
e 76 104
e 76 107
e 76 111
e 76 115
e 76 123
e 76 124
e 76 125
e 76 126
e 76 127
e 76 130
e 76 131
e 76 133
e 76 136
e 76 142
e 76 143
e 76 144
e 76 148
e 76 149
e 76 150
e 77 79
e 77 80
e 77 81
e 77 82
e 77 84
e 77 88
e 77 89
e 77 92
e 77 94
e 77 97
e 77 98
e 77 102
e 77 103
e 77 106
e 77 113
e 77 114
e 77 128
e 77 130
e 77 131
e 77 132
e 77 140
e 77 141
e 77 142
e 77 146
e 77 148
e 77 150
e 78 79
e 78 81
e 78 83
e 78 89
e 78 91
e 78 94
e 78 95
e 78 96
e 78 99
e 78 101
e 78 104
e 78 107
e 78 109
e 78 111
e 78 112
e 78 113
e 78 118
e 78 123
e 78 127
e 78 133
e 78 136
e 78 139
e 78 141
e 78 145
e 78 146
e 78 147
e 78 149
e 79 80
e 79 82
e 79 83
e 79 85
e 79 87
e 79 89
e 79 91
e 79 92
e 79 100
e 79 102
e 79 103
e 79 106
e 79 109
e 79 111
e 79 113
e 79 114
e 79 115
e 79 116
e 79 117
e 79 122
e 79 132
e 79 136
e 79 137
e 79 139
e 79 145
e 79 148
e 79 150
e 80 81
e 80 85
e 80 87
e 80 89
e 80 90
e 80 94
e 80 95
e 80 100
e 80 102
e 80 105
e 80 106
e 80 109
e 80 110
e 80 111
e 80 119
e 80 125
e 80 127
e 80 130
e 80 131
e 80 132
e 80 134
e 80 135
e 80 136
e 80 138
e 80 140
e 80 143
e 80 150
e 81 85
e 81 90
e 81 91
e 81 93
e 81 95
e 81 98
e 81 106
e 81 110
e 81 111
e 81 113
e 81 116
e 81 117
e 81 118
e 81 119
e 81 122
e 81 125
e 81 126
e 81 130
e 81 135
e 81 138
e 81 139
e 81 141
e 81 142
e 81 144
e 81 146
e 81 149
e 81 150
e 82 87
e 82 89
e 82 91
e 82 92
e 82 96
e 82 97
e 82 98
e 82 100
e 82 102
e 82 110
e 82 114
e 82 124
e 82 125
e 82 128
e 82 129
e 82 132
e 82 133
e 82 138
e 82 142
e 82 143
e 82 144
e 82 145
e 82 147
e 82 148
e 82 149
e 83 86
e 83 87
e 83 90
e 83 92
e 83 93
e 83 94
e 83 95
e 83 97
e 83 100
e 83 101
e 83 105
e 83 107
e 83 110
e 83 113
e 83 115
e 83 119
e 83 121
e 83 125
e 83 130
e 83 131
e 83 133
e 83 135
e 83 136
e 83 137
e 83 139
e 83 140
e 83 141
e 83 143
e 83 144
e 84 88
e 84 92
e 84 93
e 84 94
e 84 96
e 84 101
e 84 102
e 84 103
e 84 106
e 84 107
e 84 108
e 84 109
e 84 111
e 84 112
e 84 114
e 84 115
e 84 116
e 84 117
e 84 118
e 84 121
e 84 122
e 84 125
e 84 130
e 84 132
e 84 135
e 84 136
e 84 137
e 84 138
e 84 140
e 84 141
e 84 143
e 84 146
e 84 147
e 84 150
e 85 87
e 85 88
e 85 89
e 85 93
e 85 95
e 85 98
e 85 100
e 85 101
e 85 106
e 85 108
e 85 115
e 85 116
e 85 120
e 85 121
e 85 123
e 85 124
e 85 125
e 85 126
e 85 127
e 85 128
e 85 132
e 85 138
e 85 140
e 85 142
e 85 145
e 85 146
e 85 149
e 85 150
e 86 90
e 86 94
e 86 96
e 86 97
e 86 100
e 86 101
e 86 104
e 86 105
e 86 109
e 86 111
e 86 112
e 86 114
e 86 115
e 86 117
e 86 118
e 86 119
e 86 121
e 86 123
e 86 124
e 86 125
e 86 129
e 86 131
e 86 134
e 86 136
e 86 139
e 86 141
e 86 142
e 87 90
e 87 91
e 87 92
e 87 94
e 87 95
e 87 96
e 87 97
e 87 101
e 87 103
e 87 105
e 87 106
e 87 110
e 87 114
e 87 122
e 87 123
e 87 126
e 87 128
e 87 129
e 87 132
e 87 134
e 87 136
e 87 140
e 87 142
e 87 144
e 87 146
e 87 148
e 87 150
e 88 91
e 88 92
e 88 93
e 88 95
e 88 99
e 88 100
e 88 107
e 88 108
e 88 115
e 88 120
e 88 123
e 88 126
e 88 128
e 88 129
e 88 131
e 88 136
e 88 140
e 88 143
e 88 146
e 89 91
e 89 96
e 89 97
e 89 99
e 89 101
e 89 102
e 89 104
e 89 105
e 89 106
e 89 108
e 89 109
e 89 111
e 89 115
e 89 117
e 89 118
e 89 119
e 89 120
e 89 121
e 89 123
e 89 128
e 89 129
e 89 130
e 89 131
e 89 134
e 89 135
e 89 137
e 89 138
e 89 141
e 90 92
e 90 93
e 90 95
e 90 96
e 90 107
e 90 110
e 90 114
e 90 116
e 90 117
e 90 119
e 90 120
e 90 122
e 90 125
e 90 126
e 90 131
e 90 134
e 90 135
e 90 137
e 90 148
e 90 150
e 91 92
e 91 93
e 91 96
e 91 98
e 91 100
e 91 104
e 91 106
e 91 107
e 91 108
e 91 110
e 91 111
e 91 116
e 91 117
e 91 120
e 91 121
e 91 126
e 91 131
e 91 132
e 91 133
e 91 134
e 91 136
e 91 137
e 91 138
e 91 141
e 91 142
e 91 145
e 92 93
e 92 99
e 92 100
e 92 102
e 92 109
e 92 111
e 92 113
e 92 114
e 92 115
e 92 123
e 92 125
e 92 129
e 92 133
e 92 143
e 92 145
e 92 146
e 92 149
e 92 150
e 93 94
e 93 96
e 93 97
e 93 99
e 93 105
e 93 109
e 93 110
e 93 113
e 93 114
e 93 115
e 93 120
e 93 122
e 93 123
e 93 126
e 93 127
e 93 128
e 93 130
e 93 131
e 93 132
e 93 134
e 93 135
e 93 137
e 93 139
e 93 140
e 93 141
e 93 142
e 93 145
e 93 148
e 93 149
e 94 95
e 94 96
e 94 98
e 94 102
e 94 103
e 94 112
e 94 113
e 94 114
e 94 116
e 94 117
e 94 121
e 94 123
e 94 124
e 94 125
e 94 126
e 94 127
e 94 128
e 94 130
e 94 131
e 94 132
e 94 143
e 94 146
e 94 148
e 95 97
e 95 101
e 95 103
e 95 109
e 95 111
e 95 115
e 95 116
e 95 117
e 95 118
e 95 119
e 95 120
e 95 123
e 95 124
e 95 125
e 95 126
e 95 128
e 95 129
e 95 130
e 95 133
e 95 134
e 95 136
e 95 138
e 95 140
e 95 141
e 95 143
e 95 147
e 95 149
e 95 150
e 96 97
e 96 102
e 96 103
e 96 104
e 96 108
e 96 112
e 96 116
e 96 127
e 96 128
e 96 130
e 96 138
e 96 142
e 96 144
e 96 145
e 96 146
e 96 147
e 96 148
e 96 149
e 96 150
e 97 99
e 97 103
e 97 106
e 97 109
e 97 113
e 97 116
e 97 117
e 97 118
e 97 119
e 97 126
e 97 133
e 97 134
e 97 135
e 97 136
e 97 137
e 97 139
e 97 144
e 97 150
e 98 100
e 98 113
e 98 115
e 98 117
e 98 118
e 98 121
e 98 125
e 98 132
e 98 133
e 98 134
e 98 135
e 98 139
e 98 143
e 98 145
e 98 146
e 98 147
e 98 149
e 99 102
e 99 110
e 99 111
e 99 118
e 99 119
e 99 120
e 99 128
e 99 129
e 99 138
e 99 140
e 99 141
e 99 143
e 99 145
e 99 146
e 100 109
e 100 110
e 100 114
e 100 116
e 100 118
e 100 120
e 100 123
e 100 124
e 100 125
e 100 128
e 100 129
e 100 131
e 100 136
e 100 137
e 100 138
e 100 140
e 100 141
e 100 144
e 100 145
e 100 149
e 100 150
e 101 103
e 101 107
e 101 109
e 101 112
e 101 113
e 101 115
e 101 116
e 101 120
e 101 121
e 101 124
e 101 126
e 101 127
e 101 128
e 101 134
e 101 136
e 101 137
e 101 138
e 101 140
e 101 141
e 101 142
e 101 147
e 101 148
e 101 150
e 102 103
e 102 105
e 102 106
e 102 109
e 102 115
e 102 121
e 102 124
e 102 127
e 102 128
e 102 129
e 102 130
e 102 135
e 102 137
e 102 138
e 102 142
e 102 143
e 102 144
e 102 146
e 102 148
e 102 149
e 102 150
e 103 104
e 103 106
e 103 107
e 103 110
e 103 112
e 103 113
e 103 116
e 103 118
e 103 123
e 103 125
e 103 133
e 103 134
e 103 136
e 103 140
e 103 142
e 103 143
e 103 144
e 103 147
e 104 110
e 104 111
e 104 113
e 104 117
e 104 118
e 104 119
e 104 121
e 104 126
e 104 127
e 104 129
e 104 133
e 104 136
e 104 138
e 104 140
e 104 142
e 104 144
e 104 149
e 105 108
e 105 113
e 105 115
e 105 117
e 105 119
e 105 122
e 105 127
e 105 128
e 105 130
e 105 131
e 105 135
e 105 136
e 105 137
e 105 138
e 105 139
e 105 142
e 105 143
e 105 144
e 105 145
e 105 146
e 105 147
e 106 107
e 106 113
e 106 116
e 106 118
e 106 122
e 106 125
e 106 134
e 106 140
e 106 143
e 106 148
e 106 149
e 107 108
e 107 112
e 107 115
e 107 117
e 107 119
e 107 120
e 107 121
e 107 123
e 107 128
e 107 130
e 107 131
e 107 140
e 107 141
e 107 144
e 107 145
e 107 146
e 107 148
e 107 149
e 107 150
e 108 111
e 108 112
e 108 116
e 108 119
e 108 120
e 108 128
e 108 129
e 108 130
e 108 133
e 108 138
e 108 146
e 108 147
e 108 149
e 108 150
e 109 110
e 109 113
e 109 114
e 109 118
e 109 119
e 109 120
e 109 128
e 109 133
e 109 134
e 109 138
e 109 140
e 109 143
e 109 144
e 109 146
e 109 148
e 109 149
e 110 112
e 110 113
e 110 114
e 110 116
e 110 117
e 110 118
e 110 122
e 110 123
e 110 124
e 110 125
e 110 126
e 110 131
e 110 132
e 110 134
e 110 137
e 110 141
e 110 142
e 110 144
e 110 146
e 110 147
e 110 148
e 111 112
e 111 114
e 111 121
e 111 125
e 111 126
e 111 128
e 111 132
e 111 134
e 111 136
e 111 139
e 111 140
e 111 143
e 111 144
e 111 146
e 112 114
e 112 115
e 112 118
e 112 119
e 112 120
e 112 121
e 112 135
e 112 137
e 112 138
e 112 142
e 112 145
e 112 150
e 113 114
e 113 115
e 113 117
e 113 119
e 113 123
e 113 124
e 113 128
e 113 130
e 113 134
e 113 142
e 113 145
e 113 146
e 113 148
e 113 150
e 114 117
e 114 122
e 114 124
e 114 127
e 114 129
e 114 131
e 114 137
e 114 138
e 114 141
e 114 142
e 114 144
e 115 116
e 115 120
e 115 122
e 115 124
e 115 125
e 115 126
e 115 130
e 115 131
e 115 133
e 115 134
e 115 135
e 115 137
e 115 138
e 115 144
e 115 146
e 115 147
e 115 148
e 115 149
e 116 117
e 116 119
e 116 121
e 116 122
e 116 125
e 116 127
e 116 129
e 116 134
e 116 136
e 116 139
e 116 141
e 116 143
e 116 145
e 116 147
e 116 148
e 117 123
e 117 126
e 117 128
e 117 132
e 117 133
e 117 135
e 117 137
e 117 139
e 117 140
e 117 141
e 117 145
e 117 146
e 118 123
e 118 127
e 118 128
e 118 132
e 118 133
e 118 134
e 118 138
e 118 140
e 118 142
e 118 143
e 118 144
e 118 145
e 118 146
e 118 148
e 118 149
e 119 123
e 119 126
e 119 128
e 119 130
e 119 132
e 119 133
e 119 134
e 119 136
e 119 137
e 119 142
e 119 148
e 120 124
e 120 126
e 120 128
e 120 129
e 120 135
e 120 139
e 120 145
e 120 146
e 120 147
e 120 148
e 121 122
e 121 123
e 121 124
e 121 127
e 121 132
e 121 139
e 121 140
e 121 141
e 121 143
e 121 144
e 121 148
e 121 150
e 122 123
e 122 124
e 122 125
e 122 129
e 122 130
e 122 136
e 122 137
e 122 138
e 122 140
e 122 141
e 122 142
e 122 145
e 122 150
e 123 131
e 123 132
e 123 136
e 123 139
e 123 140
e 123 148
e 123 149
e 124 130
e 124 131
e 124 133
e 124 138
e 124 144
e 124 148
e 124 149
e 125 126
e 125 129
e 125 130
e 125 132
e 125 133
e 125 134
e 125 136
e 125 138
e 125 143
e 125 147
e 125 150
e 126 128
e 126 133
e 126 135
e 126 136
e 126 139
e 126 143
e 126 145
e 126 149
e 127 128
e 127 130
e 127 131
e 127 132
e 127 133
e 127 134
e 127 135
e 127 137
e 127 139
e 127 140
e 127 144
e 127 150
e 128 129
e 128 130
e 128 135
e 128 138
e 128 139
e 128 142
e 128 144
e 128 146
e 129 130
e 129 141
e 129 144
e 129 147
e 129 149
e 130 131
e 130 132
e 130 133
e 130 134
e 130 136
e 130 137
e 130 139
e 130 140
e 130 141
e 130 142
e 130 144
e 130 145
e 130 147
e 131 133
e 131 135
e 131 136
e 131 140
e 131 143
e 131 146
e 131 147
e 131 148
e 131 149
e 131 150
e 132 135
e 132 136
e 132 137
e 132 138
e 132 139
e 132 141
e 132 143
e 132 145
e 132 147
e 133 134
e 133 135
e 133 136
e 133 145
e 133 148
e 134 135
e 134 140
e 134 142
e 134 143
e 134 146
e 134 147
e 134 150
e 135 138
e 135 141
e 135 142
e 135 143
e 135 146
e 135 149
e 136 138
e 136 141
e 136 145
e 136 147
e 136 149
e 136 150
e 137 138
e 137 143
e 137 145
e 137 147
e 137 148
e 138 139
e 138 140
e 138 141
e 138 146
e 138 147
e 139 140
e 139 146
e 139 147
e 139 148
e 139 149
e 139 150
e 140 145
e 140 147
e 140 150
e 141 143
e 141 144
e 141 150
e 142 143
e 142 147
e 142 149
e 142 150
e 143 144
e 143 147
e 143 149
e 144 145
e 144 148
e 144 149
e 145 146
e 146 147
e 146 149
e 147 150
e 148 149
e 149 150
